# Solution for model r10_t9_m2_1
# Finished Task: 9 / 9
# Makespan: 459.0, Total Distance: 136.0, Total Time: 0.8969
# R O S F
0 0 17 43.0 43.0
1 1 -1 38.0 38.0
2 2 10 5.0 5.0
3 3 -1 36.0 36.0
4 4 14 48.0 48.0
5 5 15 71.0 71.0
6 6 11 67.0 67.0
7 7 -1 80.0 80.0
8 8 12 107.0 107.0
9 9 -1 69.0 69.0
10 2 18 365.0 390.0
11 6 -1 251.0 284.0
12 8 13 383.0 407.0
13 8 -1 407.0 438.0
14 4 16 363.0 383.0
15 5 -1 279.0 301.0
16 4 -1 419.0 444.0
17 0 -1 336.0 365.0
18 2 -1 422.0 459.0
